
Gurobi 9.5.1 (linux64) logging started Sun Jun 19 03:45:14 2022

Set parameter LogFile to value "../results/logs/log_Gowalla_edges_20_2_2022_06_19_02_07.log"
Gurobi Optimizer version 9.5.1 build v9.5.1rc2 (linux64)
Thread count: 8 physical cores, 8 logical processors, using up to 8 threads
Optimize a model with 3683 rows, 393182 columns and 329097 nonzeros
Model fingerprint: 0xbc3bb440
Variable types: 0 continuous, 393182 integer (393182 binary)
Coefficient statistics:
  Matrix range     [1e+00, 2e+01]
  Objective range  [1e+00, 1e+00]
  Bounds range     [1e+00, 1e+00]
  RHS range        [1e+00, 2e+00]
Found heuristic solution: objective 8161.0000000
Presolve removed 667 rows and 385179 columns
Presolve time: 0.29s
Presolved: 3016 rows, 8003 columns, 44863 nonzeros
Found heuristic solution: objective 8166.0000000
Variable types: 0 continuous, 8003 integer (6716 binary)

Root relaxation: objective 9.085249e+03, 1488 iterations, 0.02 seconds (0.02 work units)

    Nodes    |    Current Node    |     Objective Bounds      |     Work
 Expl Unexpl |  Obj  Depth IntInf | Incumbent    BestBd   Gap | It/Node Time

     0     0 9085.24853    0  914 8166.00000 9085.24853  11.3%     -    0s
H    0     0                    8171.0000000 9085.24853  11.2%     -    0s
     0     0 8707.32682    0  677 8171.00000 8707.32682  6.56%     -    0s
H    0     0                    8176.0000000 8707.32682  6.50%     -    0s
     0     0 8541.76754    0  287 8176.00000 8541.76754  4.47%     -    0s
     0     0 8539.61932    0  290 8176.00000 8539.61932  4.45%     -    0s
     0     0 8537.82089    0  285 8176.00000 8537.82089  4.43%     -    0s
     0     0 8537.75609    0  291 8176.00000 8537.75609  4.42%     -    0s
     0     0 8417.52264    0  322 8176.00000 8417.52264  2.95%     -    1s
     0     0 8395.52341    0  327 8176.00000 8395.52341  2.68%     -    1s
     0     0 8391.12814    0  345 8176.00000 8391.12814  2.63%     -    1s
     0     0 8389.01886    0  325 8176.00000 8389.01886  2.61%     -    1s
     0     0 8387.46339    0  341 8176.00000 8387.46339  2.59%     -    1s
     0     0 8385.66258    0  332 8176.00000 8385.66258  2.56%     -    1s
     0     0 8384.28531    0  350 8176.00000 8384.28531  2.55%     -    1s
     0     0 8383.61633    0  340 8176.00000 8383.61633  2.54%     -    1s
     0     0 8382.84877    0  343 8176.00000 8382.84877  2.53%     -    1s
     0     0 8382.50425    0  343 8176.00000 8382.50425  2.53%     -    1s
H    0     0                    8190.0000000 8382.50425  2.35%     -    1s
     0     0 8335.29781    0  326 8190.00000 8335.29781  1.77%     -    1s
     0     0 8329.91836    0  342 8190.00000 8329.91836  1.71%     -    1s
     0     0 8328.73318    0  343 8190.00000 8328.73318  1.69%     -    1s
     0     0 8328.04338    0  316 8190.00000 8328.04338  1.69%     -    1s
     0     0 8314.50270    0  366 8190.00000 8314.50270  1.52%     -    2s
     0     0 8310.85382    0  380 8190.00000 8310.85382  1.48%     -    2s
     0     0 8310.28047    0  380 8190.00000 8310.28047  1.47%     -    2s
     0     0 8305.63681    0  380 8190.00000 8305.63681  1.41%     -    2s
     0     0 8305.63681    0  380 8190.00000 8305.63681  1.41%     -    2s
     0     2 8305.63681    0  380 8190.00000 8305.63681  1.41%     -    2s
H   33    24                    8193.0000000 8301.92769  1.33%  47.5    3s
H   34    24                    8194.0000000 8301.48819  1.31%  46.4    3s
H   35    24                    8207.0000000 8301.48819  1.15%  45.1    3s
    55    36 8299.82345   10  358 8207.00000 8301.48819  1.15%  38.7    8s
H  246   160                    8212.0000000 8301.48819  1.09%  26.6    8s
H  516   344                    8219.0000000 8301.48819  1.00%  26.1    9s
  1297   751 8223.82877   36   23 8219.00000 8278.51576  0.72%  31.0   10s
  1501   835 8255.87128   40  428 8219.00000 8278.34640  0.72%  31.4   16s
  1518   847 8252.88482   43  351 8219.00000 8265.90113  0.57%  31.0   20s
  1537   859 8257.68722   64  436 8219.00000 8257.68722  0.47%  30.6   25s
  2190   794 8245.32518   48  221 8219.00000 8248.61536  0.36%  48.1   30s
  3749   231     cutoff   75      8219.00000 8229.12406  0.12%  53.6   35s

Cutting planes:
  Gomory: 82
  Lift-and-project: 54
  Cover: 15
  MIR: 431
  StrongCG: 19
  Flow cover: 565
  GUB cover: 97
  Inf proof: 1
  Zero half: 46
  RLT: 286
  Relax-and-lift: 48

Explored 4046 nodes (218664 simplex iterations) in 35.62 seconds (49.35 work units)
Thread count was 8 (of 8 available processors)

Solution count 10: 8219 8212 8207 ... 8161

Optimal solution found (tolerance 0.00e+00)
Best objective 8.219000000000e+03, best bound 8.219000000000e+03, gap 0.0000%
